Version identifier: 22.1.1.0 | 2022-11-28 | 9160aff4d
CPXPARAM_ClockType                               1
CPXPARAM_Read_DataCheck                          1
CPXPARAM_Threads                                 1
CPXPARAM_TimeLimit                               7200
CPXPARAM_MIP_Tolerances_AbsMIPGap                0
CPXPARAM_MIP_Tolerances_MIPGap                   0
CPXPARAM_MIP_Tolerances_Integrality              0
Tried aggregator 2 times.
MIP Presolve eliminated 491 rows and 1 columns.
MIP Presolve modified 786 coefficients.
Aggregator did 300 substitutions.
Reduced MIP has 1498 rows, 899 columns, and 4472 nonzeros.
Reduced MIP has 899 binaries, 0 generals, 0 SOSs, and 0 indicators.
Presolve time = 0.01 sec. (6.05 ticks)
Found incumbent of value -530.000000 after 0.02 sec. (11.53 ticks)
Probing time = 0.01 sec. (1.82 ticks)
Tried aggregator 1 time.
Detecting symmetries...
MIP Presolve eliminated 102 rows and 4 columns.
MIP Presolve modified 2 coefficients.
Reduced MIP has 1396 rows, 895 columns, and 4162 nonzeros.
Reduced MIP has 895 binaries, 0 generals, 0 SOSs, and 0 indicators.
Presolve time = 0.00 sec. (4.68 ticks)
Probing time = 0.00 sec. (1.66 ticks)
Clique table members: 2933.
MIP emphasis: balance optimality and feasibility.
MIP search method: dynamic search.
Parallel mode: none, using 1 thread.
Root relaxation solution time = 0.02 sec. (17.55 ticks)

        Nodes                                         Cuts/
   Node  Left     Objective  IInf  Best Integer    Best Bound    ItCnt     Gap

*     0+    0                         -522.0000      150.0000           128.74%
      0     0      100.0000   249     -522.0000      100.0000      533  119.16%
      0     0      100.0000   362     -522.0000      Cuts: 69      618  119.16%
      0     0      100.0000   262     -522.0000   ZeroHalf: 8      670  119.16%
      0     0      100.0000   324     -522.0000  ZeroHalf: 82      768  119.16%
*     0+    0                           72.0000      100.0000            38.89%
Detecting symmetries...
      0     2      100.0000   281       72.0000      100.0000      768   38.89%
Elapsed time = 0.29 sec. (181.30 ticks, tree = 0.01 MB, solutions = 3)
*    11     1      integral     0      100.0000      100.0000     2760    0.00%

Zero-half cuts applied:  7

Root node processing (before b&c):
  Real time             =    0.29 sec. (181.29 ticks)
Sequential b&c:
  Real time             =    0.11 sec. (104.73 ticks)
                          ------------
Total (root+branch&cut) =    0.40 sec. (286.03 ticks)
Solution is feasible.

---------------------
@@@ MIP_optimal
>>> Benchmark flat50-6.cnf k 2 OPT 100 TimeCost 0.5137031078338623 TimeSolve 0.4066436290740967 TimeRead 0.0020835399627685547 TimeTrans 0.10497593879699707
